
  32    4
  10   10   10   10

   0   0   0   0   0   1 2 
   9   1   0   1   1   1 3 
   4   2   1   3   0   1 4 
   2   0   5   2   4   1 5 
   7   4   1   5   0   2 7 6 
   4   3   0   6   4   1 8 
   7   0   4   5   4   1 8 
   1   4   2   4   0   1 9 
   2   5   5   2   0   2 11 10 
   5   3   5   7   0   1 12 
   9   6   0   3   4   1 12 
   8   3   0   3   3   1 13 
   1   6   6   0   5   1 14 
   2   3   2   0   4   2 16 15 
   5   4   0   3   5   1 17 
   7   5   0   2   3   1 17 
   6   0   3   4   3   1 18 
   7   2   3   4   0   1 19 
   9   7   5   0   3   1 20 
   8   2   3   6   0   1 21 
   9   7   8   0   3   1 22 
   9   3   7   0   1   2 24 23 
   8   4   3   0   4   2 27 25 
   1   0   7   5   4   2 27 25 
   7   6   3   0   2   1 26 
   6   0   5   5   8   1 28 
   7   2   0   3   7   1 28 
   3   6   3   0   5   1 29 
   1   4   0   4   4   2 31 30 
  10   0   4   5   2   1 32
   7   0   3   6   9   1 32
   0   0   0   0   0   0 
